(declare-const a Real)
(declare-const b Real)
(declare-const c Real)
(assert (= (* a b c) 1))
(assert (> a 0))
(assert (> b 0))
(assert (> c 0))
(assert (not (<= (+ (* -675762 (pow b 4)) (* -521394 (pow a 4)) (* -1990656 (pow a (/ 4 3)) (pow b (/ 8 3))) (* 208116 (pow a 2) (pow b 2)) (* 671928 b (pow a 3)) (* 2307768 a (pow b 3))) 0)))
(check-sat)
(get-model)
(exit)